unsat
((set-logic NIA)
(declare-fun s!0 () Int)
(declare-fun a!4 () Int)
(declare-fun r!1 () Int)
(declare-fun b!2 () Int)
(declare-fun p!5 () Int)
(declare-fun q!3 () Int)
(proof
(let ((?x1808 (* b!2 r!1)))
 (let ((?x132 (* s00 a00)))
 (let ((?x2014 (+ ?x132 (* (- 1) (* r00 b00)) ?x1808 (* (- 1) (* a!4 s!0)))))
 (let (($x1281 (>= ?x2014 0)))
 (let (($x2015 (= ?x2014 0)))
 (let ((?x1929 (* a!4 s!0)))
 (let ((?x210 (* (- 1) ?x1808)))
 (let ((?x150 (* r00 b00)))
 (let ((?x139 (* (- 1) ?x132)))
 (let ((?x2010 (+ ?x139 ?x150 ?x210 ?x1929)))
 (let ((?x2154 (* b!2 r!1 r!1 r!1 r!1 p!5 p!5 p!5 p!5 p!5 p!5)))
 (let ((?x2086 (* b!2 s!0 r!1 r!1 r!1 q!3 q!3 q!3 p!5 p!5 p!5)))
 (let ((?x2040 (* a!4 a!4 a!4 s!0 s!0 s!0 q!3 p!5)))
 (let ((?x1665 (* a!4 r!1 r!1 r!1 r!1 p!5 p!5 p!5 p!5 p!5 p!5)))
 (let ((?x1540 (* a!4 r!1 r!1 r!1 r!1 q!3 q!3 p!5 p!5 p!5 p!5)))
 (let ((?x1535 (* b!2 r!1 r!1 r!1 r!1 q!3 q!3 p!5 p!5 p!5 p!5)))
 (let ((?x1534 (* b!2 r!1 r!1 r!1 r!1 q!3 p!5 p!5 p!5 p!5 p!5)))
 (let ((?x1287 (* a!4 s!0 r!1 r!1 r!1 q!3 q!3 q!3 p!5 p!5 p!5)))
 (let ((?x1279 (* b!2 b!2 a!4 s!0 s!0 s!0 r!1 p!5)))
 (let ((?x471 (* a!4 r!1 r!1 r!1 r!1 q!3 p!5 p!5 p!5 p!5 p!5)))
 (let ((?x435 (* a!4 r!1 r!1 r!1 r!1 q!3 q!3 q!3 p!5 p!5 p!5)))
 (let ((?x433 (* b!2 s!0 r!1 r!1 r!1 q!3 q!3 p!5 p!5 p!5 p!5)))
 (let ((?x416 (* a!4 s!0 r!1 r!1 r!1 q!3 q!3 p!5 p!5 p!5 p!5)))
 (let ((?x411 (* a!4 a!4 s!0 r!1 q!3 q!3 p!5)))
 (let ((?x408 (* b!2 s!0 r!1 r!1 r!1 p!5 p!5 p!5 p!5 p!5 p!5)))
 (let ((?x405 (* b!2 s!0 r!1 r!1 r!1 q!3 p!5 p!5 p!5 p!5 p!5)))
 (let ((?x392 (* a!4 s!0 r!1 r!1 r!1 p!5 p!5 p!5 p!5 p!5 p!5)))
 (let ((?x387 (* b!2 r!1 r!1 r!1 r!1 q!3 q!3 q!3 p!5 p!5 p!5)))
 (let ((?x350 (* a!4 s!0 r!1 r!1 r!1 q!3 p!5 p!5 p!5 p!5 p!5)))
 (let ((?x289 (+ (* (- 2) (* b!2 a!4 a!4 s!0 s!0 s!0 r!1 p!5)) (* (- 1) (* a!4 a!4 r!1 r!1 p!5 p!5 p!5)) (* (- 1) (* a!4 a!4 r!1 r!1 q!3 q!3 p!5)) (* 2 (* a!4 a!4 r!1 r!1 q!3 p!5 p!5)) (* a!4 a!4 s!0 r!1 p!5 p!5 p!5) (* (- 3) ?x350) (* 3 (* a!4 a!4 a!4 s!0 r!1 r!1 r!1 p!5)) (* (- 1) ?x387) ?x392 (* 3 ?x405) (* (- 1) ?x408) ?x411 (* 3 ?x416) (* (- 3) ?x433) ?x435 (* (- 1) (* a!4 a!4 a!4 r!1 r!1 r!1 r!1 p!5)) (* 2 (* b!2 a!4 a!4 r!1 r!1 r!1 r!1 p!5)) (* (- 1) (* b!2 b!2 a!4 r!1 r!1 r!1 r!1 p!5)) (* 6 (* b!2 a!4 a!4 s!0 s!0 r!1 r!1 p!5)) (* (- 3) (* a!4 a!4 a!4 s!0 s!0 r!1 r!1 p!5)) (* 3 (* b!2 b!2 a!4 s!0 r!1 r!1 r!1 p!5)) (* 3 ?x471) (* (- 6) (* b!2 a!4 a!4 s!0 r!1 r!1 r!1 p!5)) (* (- 3) (* b!2 b!2 a!4 s!0 s!0 r!1 r!1 p!5)) (* a!4 a!4 a!4 s!0 s!0 s!0 r!1 p!5) (* (- 1) (* a!4 a!4 a!4 s!0 s!0 s!0 p!5 p!5)) (* 3 (* a!4 a!4 a!4 s!0 s!0 r!1 p!5 p!5)) ?x1279 (* (- 1) ?x1287) (* (- 3) ?x1534) (* 3 ?x1535) (* (- 3) ?x1540) (* (- 1) ?x1665) (* (- 2) (* a!4 a!4 s!0 r!1 q!3 p!5 p!5)) ?x2040 (* a!4 a!4 a!4 r!1 r!1 r!1 p!5 p!5) (* (- 1) (* a!4 a!4 a!4 r!1 r!1 r!1 q!3 p!5)) (* (- 3) (* a!4 a!4 a!4 s!0 r!1 r!1 p!5 p!5)) (* 3 (* a!4 a!4 a!4 s!0 r!1 r!1 q!3 p!5)) ?x2086 (* (- 3) (* a!4 a!4 a!4 s!0 s!0 r!1 q!3 p!5)) ?x2154)))
 (let ((?x1489 (* ?x289 ?x2010)))
 (let (($x2061 (= ?x1489 0)))
 (let ((?x2100 (* b!2 s!0 s!0 r!1 r!1 q!3 q!3 q!3 p!5 p!5 p!5)))
 (let ((?x2097 (* b!2 s!0 r!1 r!1 r!1 q!3 q!3 q!3 q!3 q!3 q!3)))
 (let ((?x2085 (* b!2 s!0 r!1 r!1 r!1 q!3 q!3 q!3 q!3 q!3 p!5)))
 (let ((?x1986 (* b!2 s!0 r!1 r!1 r!1 q!3 q!3 q!3 q!3 p!5 p!5)))
 (let ((?x1737 (* b!2 s!0 s!0 s!0 r!1 q!3 q!3 q!3 q!3 q!3 q!3)))
 (let ((?x1717 (* b!2 s!0 s!0 s!0 s!0 q!3 q!3 q!3 p!5 p!5 p!5)))
 (let ((?x1694 (* b!2 s!0 s!0 s!0 s!0 q!3 q!3 q!3 q!3 p!5 p!5)))
 (let ((?x1675 (* b!2 s!0 s!0 s!0 r!1 q!3 q!3 q!3 q!3 p!5 p!5)))
 (let ((?x1666 (* b!2 s!0 s!0 s!0 r!1 q!3 q!3 q!3 p!5 p!5 p!5)))
 (let ((?x1273 (* b!2 s!0 s!0 r!1 r!1 q!3 q!3 q!3 q!3 q!3 q!3)))
 (let ((?x1103 (* b!2 s!0 s!0 r!1 r!1 q!3 q!3 q!3 q!3 p!5 p!5)))
 (let ((?x994 (* b!2 s!0 s!0 r!1 r!1 q!3 q!3 q!3 q!3 q!3 p!5)))
 (let ((?x424 (* b!2 s!0 s!0 s!0 r!1 q!3 q!3 q!3 q!3 q!3 p!5)))
 (let ((?x407 (* b!2 s!0 s!0 s!0 s!0 q!3 q!3 q!3 q!3 q!3 q!3)))
 (let ((?x403 (* b!2 s!0 s!0 s!0 s!0 q!3 q!3 q!3 q!3 q!3 p!5)))
 (let ((?x450 (+ (* (- 1) (* b!2 b!2 a!4 s!0 s!0 s!0 r!1 q!3)) (* b!2 b!2 b!2 s!0 s!0 s!0 r!1 q!3) (* (- 2) (* b!2 a!4 s!0 r!1 q!3 q!3 p!5)) (* (- 1) (* b!2 b!2 a!4 s!0 s!0 s!0 s!0 p!5)) (* b!2 b!2 b!2 s!0 s!0 s!0 s!0 p!5) (* b!2 b!2 a!4 s!0 s!0 s!0 s!0 q!3) (* b!2 b!2 s!0 r!1 q!3 q!3 p!5) (* (- 1) (* a!4 a!4 s!0 r!1 q!3 q!3 q!3)) (* 2 (* b!2 a!4 s!0 r!1 q!3 q!3 q!3)) (* (- 1) (* b!2 b!2 s!0 r!1 q!3 q!3 q!3)) (* (- 1) (* a!4 a!4 s!0 s!0 q!3 q!3 p!5)) (* (- 3) ?x403) ?x407 (* 2 (* b!2 a!4 s!0 s!0 q!3 q!3 p!5)) ?x411 (* (- 1) (* b!2 b!2 s!0 s!0 q!3 q!3 p!5)) (* a!4 a!4 s!0 s!0 q!3 q!3 q!3) (* 9 ?x424) (* (- 2) (* b!2 a!4 s!0 s!0 q!3 q!3 q!3)) (* b!2 b!2 s!0 s!0 q!3 q!3 q!3) (* (- 9) ?x994) (* 9 ?x1103) (* 3 ?x1273) ?x1279 (* (- 1) (* b!2 b!2 b!2 s!0 s!0 s!0 s!0 q!3)) (* (- 1) (* b!2 b!2 b!2 s!0 s!0 s!0 r!1 p!5)) (* 3 ?x1666) (* (- 9) ?x1675) (* 3 ?x1694) (* (- 1) ?x1717) (* (- 3) ?x1737) (* (- 3) ?x1986) ?x2040 (* 3 (* b!2 b!2 a!4 s!0 s!0 s!0 q!3 p!5)) (* (- 3) (* b!2 a!4 a!4 s!0 s!0 s!0 q!3 p!5)) (* (- 1) (* a!4 a!4 a!4 s!0 s!0 s!0 q!3 q!3)) (* (- 1) (* b!2 b!2 b!2 s!0 s!0 s!0 q!3 p!5)) (* 3 (* b!2 a!4 a!4 s!0 s!0 s!0 q!3 q!3)) (* (- 3) (* b!2 b!2 a!4 s!0 s!0 s!0 q!3 q!3)) (* b!2 b!2 b!2 s!0 s!0 s!0 q!3 q!3) (* 3 ?x2085) ?x2086 (* (- 1) ?x2097) (* (- 3) ?x2100))))
 (let ((?x357 (* ?x450 ?x2010)))
 (let (($x2058 (= ?x357 0)))
 (let (($x456 (not $x2058)))
 (let (($x2067 (or $x456 (not $x2061))))
 (let ((?x2071 (+ (* p00 b00 s!0) (* (- 1) (* r00 b00 q!3)) (* q00 r00 b!2) (* (- 1) (* p00 s00 b!2)) (* s00 a00 q!3) (* (- 1) (* q00 a00 s!0)))))
 (let ((?x2055 (+ (* q00 a00 r!1) (* p00 s00 a!4) (* (- 1) (* q00 r00 a!4)) (* r00 b00 p!5) (* (- 1) (* p00 b00 r!1)) (* (- 1) (* s00 a00 p!5)))))
 (let ((?x138 (* q00 a00)))
 (let ((?x2035 (+ ?x138 (* (- 1) (* p00 b00)) (* (- 1) (* a!4 q!3)) (* b!2 p!5))))
 (let ((?x41 (* q00 r00)))
 (let ((?x1552 (* (- 1) ?x41)))
 (let ((?x37 (* p00 s00)))
 (let (($x1661 (and (= (+ ?x37 ?x1552 (* (- 1) (* s!0 p!5)) (* r!1 q!3)) 0) $x2015 (= ?x2035 0) (= ?x2055 0) (= ?x2071 0) $x2067)))
 (let ((?x211 (+ ?x1929 ?x210 ?x139 ?x150)))
 (let ((?x1368 (* p!5 p!5 p!5 a!4 q!3 q!3 q!3 r!1 r!1 r!1 s!0)))
 (let ((?x1361 (* p!5 p!5 p!5 p!5 q!3 q!3 b!2 r!1 r!1 r!1 s!0)))
 (let ((?x1358 (* p!5 p!5 p!5 p!5 a!4 q!3 q!3 r!1 r!1 r!1 s!0)))
 (let ((?x1356 (* p!5 p!5 p!5 p!5 p!5 q!3 b!2 r!1 r!1 r!1 s!0)))
 (let ((?x1315 (* p!5 p!5 p!5 p!5 p!5 a!4 q!3 r!1 r!1 r!1 s!0)))
 (let ((?x1352 (* p!5 p!5 p!5 p!5 p!5 p!5 b!2 r!1 r!1 r!1 s!0)))
 (let ((?x1350 (* p!5 p!5 p!5 p!5 p!5 p!5 a!4 r!1 r!1 r!1 s!0)))
 (let ((?x1348 (* p!5 p!5 p!5 q!3 q!3 q!3 b!2 r!1 r!1 r!1 r!1)))
 (let ((?x1316 (* p!5 p!5 p!5 a!4 q!3 q!3 q!3 r!1 r!1 r!1 r!1)))
 (let ((?x1435 (* p!5 p!5 p!5 p!5 q!3 q!3 b!2 r!1 r!1 r!1 r!1)))
 (let ((?x396 (* p!5 p!5 p!5 p!5 a!4 q!3 q!3 r!1 r!1 r!1 r!1)))
 (let ((?x1006 (* p!5 p!5 p!5 p!5 p!5 q!3 b!2 r!1 r!1 r!1 r!1)))
 (let ((?x1254 (* p!5 p!5 p!5 p!5 p!5 a!4 q!3 r!1 r!1 r!1 r!1)))
 (let ((?x394 (* p!5 p!5 p!5 p!5 p!5 p!5 b!2 r!1 r!1 r!1 r!1)))
 (let ((?x1247 (* p!5 p!5 p!5 p!5 p!5 p!5 a!4 r!1 r!1 r!1 r!1)))
 (let ((?x1027 (* p!5 a!4 a!4 q!3 q!3 r!1 s!0)))
 (let ((?x1025 (* p!5 a!4 b!2 b!2 r!1 s!0 s!0 s!0)))
 (let ((?x530 (* p!5 p!5 p!5 q!3 q!3 q!3 b!2 r!1 r!1 r!1 s!0)))
 (let ((?x492 (* p!5 a!4 a!4 a!4 q!3 s!0 s!0 s!0)))
 (let ((?x1409 (+ ?x492 ?x530 ?x1025 ?x1027 (* p!5 p!5 a!4 a!4 a!4 r!1 r!1 r!1) (* (- 1) (* p!5 a!4 a!4 a!4 q!3 r!1 r!1 r!1)) (* (- 3) (* p!5 p!5 a!4 a!4 a!4 r!1 r!1 s!0)) (* 3 (* p!5 a!4 a!4 a!4 q!3 r!1 r!1 s!0)) (* 3 (* p!5 p!5 a!4 a!4 a!4 r!1 s!0 s!0)) (* (- 3) (* p!5 a!4 a!4 a!4 q!3 r!1 s!0 s!0)) (* (- 1) (* p!5 p!5 a!4 a!4 a!4 s!0 s!0 s!0)) (* (- 1) ?x1247) ?x394 (* 3 ?x1254) (* (- 3) ?x1006) (* (- 3) ?x396) (* 3 ?x1435) ?x1316 (* (- 1) ?x1348) ?x1350 (* (- 1) ?x1352) (* (- 3) ?x1315) (* 3 ?x1356) (* 3 ?x1358) (* (- 3) ?x1361) (* (- 1) ?x1368) (* (- 1) (* p!5 a!4 a!4 a!4 r!1 r!1 r!1 r!1)) (* 2 (* p!5 a!4 a!4 b!2 r!1 r!1 r!1 r!1)) (* (- 1) (* p!5 a!4 b!2 b!2 r!1 r!1 r!1 r!1)) (* 3 (* p!5 a!4 a!4 a!4 r!1 r!1 r!1 s!0)) (* (- 6) (* p!5 a!4 a!4 b!2 r!1 r!1 r!1 s!0)) (* 3 (* p!5 a!4 b!2 b!2 r!1 r!1 r!1 s!0)) (* (- 3) (* p!5 a!4 a!4 a!4 r!1 r!1 s!0 s!0)) (* 6 (* p!5 a!4 a!4 b!2 r!1 r!1 s!0 s!0)) (* (- 3) (* p!5 a!4 b!2 b!2 r!1 r!1 s!0 s!0)) (* p!5 a!4 a!4 a!4 r!1 s!0 s!0 s!0) (* (- 2) (* p!5 a!4 a!4 b!2 r!1 s!0 s!0 s!0)) (* (- 1) (* p!5 p!5 p!5 a!4 a!4 r!1 r!1)) (* 2 (* p!5 p!5 a!4 a!4 q!3 r!1 r!1)) (* (- 1) (* p!5 a!4 a!4 q!3 q!3 r!1 r!1)) (* p!5 p!5 p!5 a!4 a!4 r!1 s!0) (* (- 2) (* p!5 p!5 a!4 a!4 q!3 r!1 s!0)))))
 (let ((?x1024 (* q!3 q!3 q!3 q!3 q!3 q!3 b!2 s!0 s!0 s!0 s!0)))
 (let ((?x1022 (* p!5 q!3 q!3 q!3 q!3 q!3 b!2 s!0 s!0 s!0 s!0)))
 (let ((?x1021 (* p!5 p!5 q!3 q!3 q!3 q!3 b!2 s!0 s!0 s!0 s!0)))
 (let ((?x554 (* p!5 p!5 p!5 q!3 q!3 q!3 b!2 s!0 s!0 s!0 s!0)))
 (let ((?x557 (* q!3 q!3 q!3 q!3 q!3 q!3 b!2 r!1 s!0 s!0 s!0)))
 (let ((?x1313 (* p!5 q!3 q!3 q!3 q!3 q!3 b!2 r!1 s!0 s!0 s!0)))
 (let ((?x1314 (* p!5 p!5 q!3 q!3 q!3 q!3 b!2 r!1 s!0 s!0 s!0)))
 (let ((?x1452 (* p!5 p!5 p!5 q!3 q!3 q!3 b!2 r!1 s!0 s!0 s!0)))
 (let ((?x1229 (* q!3 q!3 q!3 q!3 q!3 q!3 b!2 r!1 r!1 s!0 s!0)))
 (let ((?x1217 (* p!5 q!3 q!3 q!3 q!3 q!3 b!2 r!1 r!1 s!0 s!0)))
 (let ((?x527 (* p!5 p!5 q!3 q!3 q!3 q!3 b!2 r!1 r!1 s!0 s!0)))
 (let ((?x634 (* p!5 p!5 p!5 q!3 q!3 q!3 b!2 r!1 r!1 s!0 s!0)))
 (let ((?x526 (* q!3 q!3 q!3 q!3 q!3 q!3 b!2 r!1 r!1 r!1 s!0)))
 (let ((?x1061 (* p!5 q!3 q!3 q!3 q!3 q!3 b!2 r!1 r!1 r!1 s!0)))
 (let ((?x812 (* p!5 p!5 q!3 q!3 q!3 q!3 b!2 r!1 r!1 r!1 s!0)))
 (let ((?x1058 (+ ?x492 (* (- 3) (* p!5 a!4 a!4 q!3 b!2 s!0 s!0 s!0)) (* 3 (* p!5 a!4 q!3 b!2 b!2 s!0 s!0 s!0)) (* (- 1) (* p!5 q!3 b!2 b!2 b!2 s!0 s!0 s!0)) (* (- 1) (* a!4 a!4 a!4 q!3 q!3 s!0 s!0 s!0)) (* 3 (* a!4 a!4 q!3 q!3 b!2 s!0 s!0 s!0)) (* (- 3) (* a!4 q!3 q!3 b!2 b!2 s!0 s!0 s!0)) (* q!3 q!3 b!2 b!2 b!2 s!0 s!0 s!0) ?x530 (* (- 3) ?x812) (* 3 ?x1061) (* (- 1) ?x526) (* (- 3) ?x634) (* 9 ?x527) (* (- 9) ?x1217) (* 3 ?x1229) (* 3 ?x1452) (* (- 9) ?x1314) (* 9 ?x1313) (* (- 3) ?x557) (* (- 1) ?x554) (* 3 ?x1021) (* (- 3) ?x1022) ?x1024 ?x1025 ?x1027 (* (- 1) (* p!5 b!2 b!2 b!2 r!1 s!0 s!0 s!0)) (* (- 1) (* a!4 q!3 b!2 b!2 r!1 s!0 s!0 s!0)) (* q!3 b!2 b!2 b!2 r!1 s!0 s!0 s!0) (* (- 1) (* p!5 a!4 b!2 b!2 s!0 s!0 s!0 s!0)) (* p!5 b!2 b!2 b!2 s!0 s!0 s!0 s!0) (* a!4 q!3 b!2 b!2 s!0 s!0 s!0 s!0) (* (- 1) (* q!3 b!2 b!2 b!2 s!0 s!0 s!0 s!0)) (* (- 2) (* p!5 a!4 q!3 q!3 b!2 r!1 s!0)) (* p!5 q!3 q!3 b!2 b!2 r!1 s!0) (* (- 1) (* a!4 a!4 q!3 q!3 q!3 r!1 s!0)) (* 2 (* a!4 q!3 q!3 q!3 b!2 r!1 s!0)) (* (- 1) (* q!3 q!3 q!3 b!2 b!2 r!1 s!0)) (* (- 1) (* p!5 a!4 a!4 q!3 q!3 s!0 s!0)) (* 2 (* p!5 a!4 q!3 q!3 b!2 s!0 s!0)) (* (- 1) (* p!5 q!3 q!3 b!2 b!2 s!0 s!0)) (* a!4 a!4 q!3 q!3 q!3 s!0 s!0) (* (- 2) (* a!4 q!3 q!3 q!3 b!2 s!0 s!0)) (* q!3 q!3 q!3 b!2 b!2 s!0 s!0))))
 (let ((?x481 (+ (* b!2 q00 r00) (* (- 1) (* b!2 p00 s00)) (* s!0 p00 b00) (* (- 1) (* q!3 r00 b00)) (* q!3 s00 a00) (* (- 1) (* s!0 q00 a00)))))
 (let ((?x1685 (+ (* a!4 p00 s00) (* (- 1) (* a!4 q00 r00)) (* p!5 r00 b00) (* (- 1) (* r!1 p00 b00)) (* (- 1) (* p!5 s00 a00)) (* r!1 q00 a00))))
 (let ((?x143 (* p00 b00)))
 (let ((?x184 (* (- 1) ?x138)))
 (let ((?x290 (* a!4 q!3)))
 (let (($x1354 (= (+ (* p!5 s!0) (* (- 1) ?x37) ?x41 (* (- 1) (* q!3 r!1))) 0)))
 (let (($x1336 (and $x1354 (= ?x211 0) (= (+ ?x290 ?x184 ?x143 (* (- 1) (* p!5 b!2))) 0) (= ?x1685 0) (= ?x481 0) (or (not (= (* ?x1058 ?x211) 0)) (not (= (* ?x1409 ?x211) 0))))))
 (let (($x1814 (exists ((p Int) (a Int) (q Int) (b Int) (r Int) (s Int) )(! (let ((?x150 (* r00 b00)))
 (let ((?x132 (* s00 a00)))
 (let ((?x139 (* (- 1) ?x132)))
 (let ((?x127 (* (- 1) (* b r))))
 (let ((?x49 (* a s)))
 (let ((?x157 (+ ?x49 ?x127 ?x139 ?x150)))
 (let ((?x1772 (* (- 1) (* p p p a q q q r r r s))))
 (let ((?x1785 (* (- 3) (* p p p p q q b r r r s))))
 (let ((?x1784 (* 3 (* p p p p a q q r r r s))))
 (let ((?x1783 (* 3 (* p p p p p q b r r r s))))
 (let ((?x1782 (* (- 3) (* p p p p p a q r r r s))))
 (let ((?x1672 (* (- 1) (* p p p p p p b r r r s))))
 (let ((?x1654 (* (- 1) (* p p p q q q b r r r r))))
 (let ((?x1781 (* 3 (* p p p p q q b r r r r))))
 (let ((?x1780 (* (- 3) (* p p p p a q q r r r r))))
 (let ((?x1779 (* (- 3) (* p p p p p q b r r r r))))
 (let ((?x1778 (* 3 (* p p p p p a q r r r r))))
 (let ((?x1532 (* (- 1) (* p p p p p p a r r r r))))
 (let ((?x1108 (* p a a q q r s)))
 (let ((?x1107 (* p a b b r s s s)))
 (let ((?x568 (* p p p q q q b r r r s)))
 (let ((?x365 (* p a a a q s s s)))
 (let ((?x2195 (+ ?x365 ?x568 ?x1107 ?x1108 (* p p a a a r r r) (* (- 1) (* p a a a q r r r)) (* (- 3) (* p p a a a r r s)) (* 3 (* p a a a q r r s)) (* 3 (* p p a a a r s s)) (* (- 3) (* p a a a q r s s)) (* (- 1) (* p p a a a s s s)) ?x1532 (* p p p p p p b r r r r) ?x1778 ?x1779 ?x1780 ?x1781 (* p p p a q q q r r r r) ?x1654 (* p p p p p p a r r r s) ?x1672 ?x1782 ?x1783 ?x1784 ?x1785 ?x1772 (* (- 1) (* p a a a r r r r)) (* 2 (* p a a b r r r r)) (* (- 1) (* p a b b r r r r)) (* 3 (* p a a a r r r s)) (* (- 6) (* p a a b r r r s)) (* 3 (* p a b b r r r s)) (* (- 3) (* p a a a r r s s)) (* 6 (* p a a b r r s s)) (* (- 3) (* p a b b r r s s)) (* p a a a r s s s) (* (- 2) (* p a a b r s s s)) (* (- 1) (* p p p a a r r)) (* 2 (* p p a a q r r)) (* (- 1) (* p a a q q r r)) (* p p p a a r s) (* (- 2) (* p p a a q r s)))))
 (let ((?x1083 (* (- 3) (* p q q q q q b s s s s))))
 (let ((?x1082 (* 3 (* p p q q q q b s s s s))))
 (let ((?x1008 (* (- 1) (* p p p q q q b s s s s))))
 (let ((?x1081 (* (- 3) (* q q q q q q b r s s s))))
 (let ((?x1080 (* 9 (* p q q q q q b r s s s))))
 (let ((?x1079 (* (- 9) (* p p q q q q b r s s s))))
 (let ((?x1078 (* 3 (* p p p q q q b r s s s))))
 (let ((?x1077 (* 3 (* q q q q q q b r r s s))))
 (let ((?x1076 (* (- 9) (* p q q q q q b r r s s))))
 (let ((?x1074 (* 9 (* p p q q q q b r r s s))))
 (let ((?x1072 (* (- 3) (* p p p q q q b r r s s))))
 (let ((?x626 (* (- 1) (* q q q q q q b r r r s))))
 (let ((?x1071 (* 3 (* p q q q q q b r r r s))))
 (let ((?x1070 (* (- 3) (* p p q q q q b r r r s))))
 (let ((?x1304 (+ ?x365 (* (- 3) (* p a a q b s s s)) (* 3 (* p a q b b s s s)) (* (- 1) (* p q b b b s s s)) (* (- 1) (* a a a q q s s s)) (* 3 (* a a q q b s s s)) (* (- 3) (* a q q b b s s s)) (* q q b b b s s s) ?x568 ?x1070 ?x1071 ?x626 ?x1072 ?x1074 ?x1076 ?x1077 ?x1078 ?x1079 ?x1080 ?x1081 ?x1008 ?x1082 ?x1083 (* q q q q q q b s s s s) ?x1107 ?x1108 (* (- 1) (* p b b b r s s s)) (* (- 1) (* a q b b r s s s)) (* q b b b r s s s) (* (- 1) (* p a b b s s s s)) (* p b b b s s s s) (* a q b b s s s s) (* (- 1) (* q b b b s s s s)) (* (- 2) (* p a q q b r s)) (* p q q b b r s) (* (- 1) (* a a q q q r s)) (* 2 (* a q q q b r s)) (* (- 1) (* q q q b b r s)) (* (- 1) (* p a a q q s s)) (* 2 (* p a q q b s s)) (* (- 1) (* p q q b b s s)) (* a a q q q s s) (* (- 2) (* a q q q b s s)) (* q q q b b s s))))
 (let ((?x72 (* b q00 r00)))
 (let ((?x316 (+ ?x72 (* (- 1) (* b p00 s00)) (* s p00 b00) (* (- 1) (* q r00 b00)) (* q s00 a00) (* (- 1) (* s q00 a00)))))
 (let (($x321 (= ?x316 0)))
 (let ((?x63 (* a p00 s00)))
 (let ((?x252 (+ ?x63 (* (- 1) (* a q00 r00)) (* p r00 b00) (* (- 1) (* r p00 b00)) (* (- 1) (* p s00 a00)) (* r q00 a00))))
 (let (($x253 (= ?x252 0)))
 (let ((?x143 (* p00 b00)))
 (let ((?x138 (* q00 a00)))
 (let ((?x184 (* (- 1) ?x138)))
 (let (($x187 (= (+ (* a q) ?x184 ?x143 (* (- 1) (* p b))) 0)))
 (let (($x165 (= ?x157 0)))
 (let ((?x41 (* q00 r00)))
 (let ((?x37 (* p00 s00)))
 (let ((?x141 (* (- 1) ?x37)))
 (let ((?x33 (* p s)))
 (let (($x160 (= (+ ?x33 ?x141 ?x41 (* (- 1) (* q r))) 0)))
 (and $x160 $x165 $x187 $x253 $x321 (or (not (= (* ?x1304 ?x157) 0)) (not (= (* ?x2195 ?x157) 0)))))))))))))))))))))))))))))))))))))))))))))))))))))))))) :qid k!39))
 ))
 (let (($x1918 (exists ((p Int) (a Int) (q Int) (b Int) (r Int) (s Int) )(! (let ((?x51 (* b00 r00)))
 (let ((?x47 (* a00 s00)))
 (let ((?x1132 (* (- 1) ?x47)))
 (let ((?x1926 (+ (* (- 1) (* (+ b (* (- 1) a)) r)) ?x1132 (* (+ s (* (- 1) r)) a) ?x51)))
 (let ((?x1806 (+ q (* (- 1) p))))
 (let ((?x1908 (+ s (* (- 1) r))))
 (let ((?x342 (* (- 1) a)))
 (let ((?x1934 (+ b ?x342)))
 (let ((?x1979 (+ (* ?x1908 ?x1908 ?x1908 ?x1806 a a a p) (* ?x1908 ?x1934 ?x1806 ?x1806 ?x1806 r r r p p p) (* ?x1908 ?x1908 ?x1908 ?x1934 ?x1934 r a p) (* ?x1908 ?x1806 ?x1806 r a a p))))
 (let ((?x1804 (+ (* (- 1) (* (+ r (* (- 1) s)) b)) ?x1132 (* (+ a (* (- 1) b)) s) ?x51)))
 (let ((?x1910 (+ p (* (- 1) q))))
 (let ((?x1893 (+ a (* (- 1) b))))
 (let ((?x262 (* (- 1) s)))
 (let ((?x447 (+ r ?x262)))
 (let ((?x1810 (+ (* ?x1893 ?x1893 ?x1893 ?x1910 s s s q) (* ?x447 ?x447 ?x447 ?x1910 ?x1910 ?x1910 s b q q q) (* ?x447 ?x1893 ?x1910 s s s b b) (* ?x447 ?x1893 ?x1893 ?x1910 s q q))))
 (let (($x1962 (or (not (= (* ?x1810 ?x1804) 0)) (not (= (* ?x1979 ?x1926) 0)))))
 (let ((?x73 (* b00 p00 s)))
 (let ((?x1914 (+ (* q00 r00 b) ?x73 (* (- 1) (* b00 r00 q)) (* (- 1) (* p00 s00 b)) (* a00 s00 q) (* (- 1) (* a00 q00 s)))))
 (let (($x1915 (= ?x1914 0)))
 (let ((?x69 (* a00 q00 r)))
 (let ((?x1832 (* p00 s00 a)))
 (let ((?x1559 (* b00 r00 p)))
 (let ((?x1868 (+ ?x1559 ?x1832 (* (- 1) (* b00 p00 r)) (* (- 1) (* q00 r00 a)) (* (- 1) (* a00 s00 p)) ?x69)))
 (let ((?x57 (* b00 p00)))
 (let ((?x300 (* q a)))
 (let (($x1846 (= (+ ?x300 (* (- 1) (* a00 q00)) ?x57 (* (- 1) (* b p))) 0)))
 (let (($x1853 (= (+ (* r b) ?x47 (* (- 1) (* s a)) (* (- 1) ?x51)) 0)))
 (let ((?x41 (* q00 r00)))
 (let ((?x1552 (* (- 1) ?x41)))
 (let ((?x37 (* p00 s00)))
 (let ((?x1159 (* r q)))
 (and (= (+ ?x1159 (* (- 1) (* s p)) ?x37 ?x1552) 0) $x1853 $x1846 (= ?x1868 0) $x1915 $x1962)))))))))))))))))))))))))))))))) :qid k!39))
 ))
 (let ((?x1982 (lambda ((p Int) (a Int) (q Int) (b Int) (r Int) (s Int) )(let ((?x150 (* r00 b00)))
 (let ((?x132 (* s00 a00)))
 (let ((?x139 (* (- 1) ?x132)))
 (let ((?x127 (* (- 1) (* b r))))
 (let ((?x49 (* a s)))
 (let ((?x157 (+ ?x49 ?x127 ?x139 ?x150)))
 (let ((?x1772 (* (- 1) (* p p p a q q q r r r s))))
 (let ((?x1785 (* (- 3) (* p p p p q q b r r r s))))
 (let ((?x1784 (* 3 (* p p p p a q q r r r s))))
 (let ((?x1783 (* 3 (* p p p p p q b r r r s))))
 (let ((?x1782 (* (- 3) (* p p p p p a q r r r s))))
 (let ((?x1672 (* (- 1) (* p p p p p p b r r r s))))
 (let ((?x1654 (* (- 1) (* p p p q q q b r r r r))))
 (let ((?x1781 (* 3 (* p p p p q q b r r r r))))
 (let ((?x1780 (* (- 3) (* p p p p a q q r r r r))))
 (let ((?x1779 (* (- 3) (* p p p p p q b r r r r))))
 (let ((?x1778 (* 3 (* p p p p p a q r r r r))))
 (let ((?x1532 (* (- 1) (* p p p p p p a r r r r))))
 (let ((?x1108 (* p a a q q r s)))
 (let ((?x1107 (* p a b b r s s s)))
 (let ((?x568 (* p p p q q q b r r r s)))
 (let ((?x365 (* p a a a q s s s)))
 (let ((?x2195 (+ ?x365 ?x568 ?x1107 ?x1108 (* p p a a a r r r) (* (- 1) (* p a a a q r r r)) (* (- 3) (* p p a a a r r s)) (* 3 (* p a a a q r r s)) (* 3 (* p p a a a r s s)) (* (- 3) (* p a a a q r s s)) (* (- 1) (* p p a a a s s s)) ?x1532 (* p p p p p p b r r r r) ?x1778 ?x1779 ?x1780 ?x1781 (* p p p a q q q r r r r) ?x1654 (* p p p p p p a r r r s) ?x1672 ?x1782 ?x1783 ?x1784 ?x1785 ?x1772 (* (- 1) (* p a a a r r r r)) (* 2 (* p a a b r r r r)) (* (- 1) (* p a b b r r r r)) (* 3 (* p a a a r r r s)) (* (- 6) (* p a a b r r r s)) (* 3 (* p a b b r r r s)) (* (- 3) (* p a a a r r s s)) (* 6 (* p a a b r r s s)) (* (- 3) (* p a b b r r s s)) (* p a a a r s s s) (* (- 2) (* p a a b r s s s)) (* (- 1) (* p p p a a r r)) (* 2 (* p p a a q r r)) (* (- 1) (* p a a q q r r)) (* p p p a a r s) (* (- 2) (* p p a a q r s)))))
 (let ((?x1083 (* (- 3) (* p q q q q q b s s s s))))
 (let ((?x1082 (* 3 (* p p q q q q b s s s s))))
 (let ((?x1008 (* (- 1) (* p p p q q q b s s s s))))
 (let ((?x1081 (* (- 3) (* q q q q q q b r s s s))))
 (let ((?x1080 (* 9 (* p q q q q q b r s s s))))
 (let ((?x1079 (* (- 9) (* p p q q q q b r s s s))))
 (let ((?x1078 (* 3 (* p p p q q q b r s s s))))
 (let ((?x1077 (* 3 (* q q q q q q b r r s s))))
 (let ((?x1076 (* (- 9) (* p q q q q q b r r s s))))
 (let ((?x1074 (* 9 (* p p q q q q b r r s s))))
 (let ((?x1072 (* (- 3) (* p p p q q q b r r s s))))
 (let ((?x626 (* (- 1) (* q q q q q q b r r r s))))
 (let ((?x1071 (* 3 (* p q q q q q b r r r s))))
 (let ((?x1070 (* (- 3) (* p p q q q q b r r r s))))
 (let ((?x1304 (+ ?x365 (* (- 3) (* p a a q b s s s)) (* 3 (* p a q b b s s s)) (* (- 1) (* p q b b b s s s)) (* (- 1) (* a a a q q s s s)) (* 3 (* a a q q b s s s)) (* (- 3) (* a q q b b s s s)) (* q q b b b s s s) ?x568 ?x1070 ?x1071 ?x626 ?x1072 ?x1074 ?x1076 ?x1077 ?x1078 ?x1079 ?x1080 ?x1081 ?x1008 ?x1082 ?x1083 (* q q q q q q b s s s s) ?x1107 ?x1108 (* (- 1) (* p b b b r s s s)) (* (- 1) (* a q b b r s s s)) (* q b b b r s s s) (* (- 1) (* p a b b s s s s)) (* p b b b s s s s) (* a q b b s s s s) (* (- 1) (* q b b b s s s s)) (* (- 2) (* p a q q b r s)) (* p q q b b r s) (* (- 1) (* a a q q q r s)) (* 2 (* a q q q b r s)) (* (- 1) (* q q q b b r s)) (* (- 1) (* p a a q q s s)) (* 2 (* p a q q b s s)) (* (- 1) (* p q q b b s s)) (* a a q q q s s) (* (- 2) (* a q q q b s s)) (* q q q b b s s))))
 (let ((?x72 (* b q00 r00)))
 (let ((?x316 (+ ?x72 (* (- 1) (* b p00 s00)) (* s p00 b00) (* (- 1) (* q r00 b00)) (* q s00 a00) (* (- 1) (* s q00 a00)))))
 (let (($x321 (= ?x316 0)))
 (let ((?x63 (* a p00 s00)))
 (let ((?x252 (+ ?x63 (* (- 1) (* a q00 r00)) (* p r00 b00) (* (- 1) (* r p00 b00)) (* (- 1) (* p s00 a00)) (* r q00 a00))))
 (let (($x253 (= ?x252 0)))
 (let ((?x143 (* p00 b00)))
 (let ((?x138 (* q00 a00)))
 (let ((?x184 (* (- 1) ?x138)))
 (let (($x187 (= (+ (* a q) ?x184 ?x143 (* (- 1) (* p b))) 0)))
 (let (($x165 (= ?x157 0)))
 (let ((?x41 (* q00 r00)))
 (let ((?x37 (* p00 s00)))
 (let ((?x141 (* (- 1) ?x37)))
 (let ((?x33 (* p s)))
 (let (($x160 (= (+ ?x33 ?x141 ?x41 (* (- 1) (* q r))) 0)))
 (let (($x2259 (and $x160 $x165 $x187 $x253 $x321 (or (not (= (* ?x1304 ?x157) 0)) (not (= (* ?x2195 ?x157) 0))))))
 (let ((?x51 (* b00 r00)))
 (let ((?x47 (* a00 s00)))
 (let ((?x1132 (* (- 1) ?x47)))
 (let ((?x1926 (+ (* (- 1) (* (+ b (* (- 1) a)) r)) ?x1132 (* (+ s (* (- 1) r)) a) ?x51)))
 (let ((?x1806 (+ q (* (- 1) p))))
 (let ((?x1908 (+ s (* (- 1) r))))
 (let ((?x342 (* (- 1) a)))
 (let ((?x1934 (+ b ?x342)))
 (let ((?x1979 (+ (* ?x1908 ?x1908 ?x1908 ?x1806 a a a p) (* ?x1908 ?x1934 ?x1806 ?x1806 ?x1806 r r r p p p) (* ?x1908 ?x1908 ?x1908 ?x1934 ?x1934 r a p) (* ?x1908 ?x1806 ?x1806 r a a p))))
 (let ((?x1804 (+ (* (- 1) (* (+ r (* (- 1) s)) b)) ?x1132 (* (+ a (* (- 1) b)) s) ?x51)))
 (let ((?x1910 (+ p (* (- 1) q))))
 (let ((?x1893 (+ a (* (- 1) b))))
 (let ((?x262 (* (- 1) s)))
 (let ((?x447 (+ r ?x262)))
 (let ((?x1810 (+ (* ?x1893 ?x1893 ?x1893 ?x1910 s s s q) (* ?x447 ?x447 ?x447 ?x1910 ?x1910 ?x1910 s b q q q) (* ?x447 ?x1893 ?x1910 s s s b b) (* ?x447 ?x1893 ?x1893 ?x1910 s q q))))
 (let (($x1962 (or (not (= (* ?x1810 ?x1804) 0)) (not (= (* ?x1979 ?x1926) 0)))))
 (let ((?x73 (* b00 p00 s)))
 (let ((?x1914 (+ (* q00 r00 b) ?x73 (* (- 1) (* b00 r00 q)) (* (- 1) (* p00 s00 b)) (* a00 s00 q) (* (- 1) (* a00 q00 s)))))
 (let (($x1915 (= ?x1914 0)))
 (let ((?x69 (* a00 q00 r)))
 (let ((?x1832 (* p00 s00 a)))
 (let ((?x1559 (* b00 r00 p)))
 (let ((?x1868 (+ ?x1559 ?x1832 (* (- 1) (* b00 p00 r)) (* (- 1) (* q00 r00 a)) (* (- 1) (* a00 s00 p)) ?x69)))
 (let ((?x57 (* b00 p00)))
 (let ((?x300 (* q a)))
 (let (($x1846 (= (+ ?x300 (* (- 1) (* a00 q00)) ?x57 (* (- 1) (* b p))) 0)))
 (let (($x1853 (= (+ (* r b) ?x47 (* (- 1) (* s a)) (* (- 1) ?x51)) 0)))
 (let (($x1558 (= (+ (* r q) (* (- 1) (* s p)) ?x37 (* (- 1) ?x41)) 0)))
 (let (($x1844 (and $x1558 $x1853 $x1846 (= ?x1868 0) $x1915 $x1962)))
 (rewrite (= $x1844 $x2259)))))))))))))))))))))))))))))))))))))))))))))))))))))))))))))))))))))))))))))))))))))))
 ))
 (let (($x1841 (exists ((p Int) (a Int) (q Int) (b Int) (r Int) (s Int) )(! (let ((?x51 (* b00 r00)))
 (let ((?x47 (* a00 s00)))
 (let ((?x1132 (* (- 1) ?x47)))
 (let ((?x1926 (+ (* (- 1) (* (+ b (* (- 1) a)) r)) ?x1132 (* (+ s (* (- 1) r)) a) ?x51)))
 (let ((?x1806 (+ q (* (- 1) p))))
 (let ((?x1908 (+ s (* (- 1) r))))
 (let ((?x342 (* (- 1) a)))
 (let ((?x1934 (+ b ?x342)))
 (let ((?x1979 (+ (* ?x1908 ?x1908 ?x1908 ?x1806 a a a p) (* ?x1908 ?x1934 ?x1806 ?x1806 ?x1806 r r r p p p) (* ?x1908 ?x1908 ?x1908 ?x1934 ?x1934 r a p) (* ?x1908 ?x1806 ?x1806 r a a p))))
 (let ((?x1804 (+ (* (- 1) (* (+ r (* (- 1) s)) b)) ?x1132 (* (+ a (* (- 1) b)) s) ?x51)))
 (let ((?x1910 (+ p (* (- 1) q))))
 (let ((?x1893 (+ a (* (- 1) b))))
 (let ((?x262 (* (- 1) s)))
 (let ((?x447 (+ r ?x262)))
 (let ((?x1810 (+ (* ?x1893 ?x1893 ?x1893 ?x1910 s s s q) (* ?x447 ?x447 ?x447 ?x1910 ?x1910 ?x1910 s b q q q) (* ?x447 ?x1893 ?x1910 s s s b b) (* ?x447 ?x1893 ?x1893 ?x1910 s q q))))
 (let (($x1962 (or (not (= (* ?x1810 ?x1804) 0)) (not (= (* ?x1979 ?x1926) 0)))))
 (let ((?x73 (* b00 p00 s)))
 (let ((?x1914 (+ (* q00 r00 b) ?x73 (* (- 1) (* b00 r00 q)) (* (- 1) (* p00 s00 b)) (* a00 s00 q) (* (- 1) (* a00 q00 s)))))
 (let (($x1915 (= ?x1914 0)))
 (let ((?x1855 (* a00 s00 p)))
 (let ((?x1852 (* q00 r00 a)))
 (let ((?x65 (* b00 p00 r)))
 (let ((?x1875 (+ (* (- 1) (* b00 r00 p)) (* (- 1) (* p00 s00 a)) ?x65 ?x1852 ?x1855 (* (- 1) (* a00 q00 r)))))
 (let ((?x59 (* b p)))
 (let ((?x55 (* a00 q00)))
 (let (($x1847 (= (+ (* (- 1) (* q a)) ?x55 (* (- 1) (* b00 p00)) ?x59) 0)))
 (let ((?x41 (* q00 r00)))
 (let ((?x37 (* p00 s00)))
 (let ((?x141 (* (- 1) ?x37)))
 (let ((?x326 (* s p)))
 (and (= (+ (* (- 1) (* r q)) ?x326 ?x141 ?x41) 0) (= (+ (* (- 1) (* r b)) ?x1132 (* s a) ?x51) 0) $x1847 (= ?x1875 0) $x1915 $x1962))))))))))))))))))))))))))))))) :qid k!39))
 ))
 (let ((?x1922 (lambda ((p Int) (a Int) (q Int) (b Int) (r Int) (s Int) )(let ((?x51 (* b00 r00)))
 (let ((?x47 (* a00 s00)))
 (let ((?x1132 (* (- 1) ?x47)))
 (let ((?x1926 (+ (* (- 1) (* (+ b (* (- 1) a)) r)) ?x1132 (* (+ s (* (- 1) r)) a) ?x51)))
 (let ((?x1806 (+ q (* (- 1) p))))
 (let ((?x1908 (+ s (* (- 1) r))))
 (let ((?x342 (* (- 1) a)))
 (let ((?x1934 (+ b ?x342)))
 (let ((?x1979 (+ (* ?x1908 ?x1908 ?x1908 ?x1806 a a a p) (* ?x1908 ?x1934 ?x1806 ?x1806 ?x1806 r r r p p p) (* ?x1908 ?x1908 ?x1908 ?x1934 ?x1934 r a p) (* ?x1908 ?x1806 ?x1806 r a a p))))
 (let ((?x1804 (+ (* (- 1) (* (+ r (* (- 1) s)) b)) ?x1132 (* (+ a (* (- 1) b)) s) ?x51)))
 (let ((?x1910 (+ p (* (- 1) q))))
 (let ((?x1893 (+ a (* (- 1) b))))
 (let ((?x262 (* (- 1) s)))
 (let ((?x447 (+ r ?x262)))
 (let ((?x1810 (+ (* ?x1893 ?x1893 ?x1893 ?x1910 s s s q) (* ?x447 ?x447 ?x447 ?x1910 ?x1910 ?x1910 s b q q q) (* ?x447 ?x1893 ?x1910 s s s b b) (* ?x447 ?x1893 ?x1893 ?x1910 s q q))))
 (let (($x1962 (or (not (= (* ?x1810 ?x1804) 0)) (not (= (* ?x1979 ?x1926) 0)))))
 (let ((?x73 (* b00 p00 s)))
 (let ((?x1914 (+ (* q00 r00 b) ?x73 (* (- 1) (* b00 r00 q)) (* (- 1) (* p00 s00 b)) (* a00 s00 q) (* (- 1) (* a00 q00 s)))))
 (let (($x1915 (= ?x1914 0)))
 (let ((?x69 (* a00 q00 r)))
 (let ((?x1832 (* p00 s00 a)))
 (let ((?x1559 (* b00 r00 p)))
 (let ((?x1868 (+ ?x1559 ?x1832 (* (- 1) (* b00 p00 r)) (* (- 1) (* q00 r00 a)) (* (- 1) (* a00 s00 p)) ?x69)))
 (let ((?x57 (* b00 p00)))
 (let ((?x300 (* q a)))
 (let (($x1846 (= (+ ?x300 (* (- 1) (* a00 q00)) ?x57 (* (- 1) (* b p))) 0)))
 (let (($x1853 (= (+ (* r b) ?x47 (* (- 1) (* s a)) (* (- 1) ?x51)) 0)))
 (let ((?x41 (* q00 r00)))
 (let ((?x1552 (* (- 1) ?x41)))
 (let ((?x37 (* p00 s00)))
 (let ((?x1159 (* r q)))
 (let (($x1844 (and (= (+ ?x1159 (* (- 1) (* s p)) ?x37 ?x1552) 0) $x1853 $x1846 (= ?x1868 0) $x1915 $x1962)))
 (let ((?x1855 (* a00 s00 p)))
 (let ((?x1852 (* q00 r00 a)))
 (let ((?x65 (* b00 p00 r)))
 (let (($x1883 (= (+ (* (- 1) ?x1559) (* (- 1) ?x1832) ?x65 ?x1852 ?x1855 (* (- 1) ?x69)) 0)))
 (let (($x1847 (= (+ (* (- 1) ?x300) (* a00 q00) (* (- 1) ?x57) (* b p)) 0)))
 (let (($x1884 (and (= (+ (* (- 1) ?x1159) (* s p) (* (- 1) ?x37) ?x41) 0) (= (+ (* (- 1) (* r b)) ?x1132 (* s a) ?x51) 0) $x1847 $x1883 $x1915 $x1962)))
 (rewrite (= $x1884 $x1844)))))))))))))))))))))))))))))))))))))))))
 ))
 (let (($x116 (exists ((p Int) (a Int) (q Int) (b Int) (r Int) (s Int) )(! (let ((?x102 (- s r)))
 (let ((?x99 (- b a)))
 (let ((?x105 (- q p)))
 (let ((?x110 (+ (* a a a p ?x105 ?x102 ?x102 ?x102) (* ?x99 p p p ?x105 ?x105 ?x105 r r r ?x102) (* a ?x99 ?x99 p r ?x102 ?x102 ?x102) (* a a p ?x105 ?x105 r ?x102))))
 (let ((?x51 (* b00 r00)))
 (let ((?x111 (* (+ (- (* (- 1) ?x99 r) (* a00 s00)) (* a ?x102) ?x51) ?x110)))
 (let ((?x84 (- r s)))
 (let ((?x90 (- p q)))
 (let ((?x87 (- a b)))
 (let ((?x95 (+ (* ?x87 ?x87 ?x87 ?x90 q s s s) (* b ?x90 ?x90 ?x90 q q q ?x84 ?x84 ?x84 s) (* ?x87 b b ?x90 ?x84 s s s) (* ?x87 ?x87 ?x90 q q ?x84 s))))
 (let ((?x96 (* (+ (- (* (- 1) b ?x84) (* a00 s00)) (* ?x87 s) ?x51) ?x95)))
 (let ((?x81 (* a00 q00 s)))
 (let ((?x76 (* b p00 s00)))
 (let ((?x77 (- (+ (* b q00 r00) (* b00 p00 s)) (* b00 q r00))))
 (let ((?x69 (* a00 q00 r)))
 (let ((?x66 (* a q00 r00)))
 (let ((?x65 (* b00 p00 r)))
 (let ((?x68 (+ (- (* (- 1) b00 p r00) (* a p00 s00)) ?x65 ?x66 (* a00 p s00))))
 (let ((?x59 (* b p)))
 (let ((?x60 (+ (- (+ (* (- 1) a q) (* a00 q00)) (* b00 p00)) ?x59)))
 (let (($x53 (= (+ (- (* (- 1) b r) (* a00 s00)) (* a s) ?x51) 0)))
 (let ((?x41 (* q00 r00)))
 (let ((?x42 (+ (- (+ (* (- 1) q r) (* p s)) (* p00 s00)) ?x41)))
 (and (= ?x42 0) $x53 (= ?x60 0) (= (- ?x68 ?x69) 0) (= (- (+ (- ?x77 ?x76) (* a00 q s00)) ?x81) 0) (or (not (= ?x96 0)) (not (= ?x111 0))))))))))))))))))))))))))) :qid k!39))
 ))
 (let ((?x1799 (lambda ((p Int) (a Int) (q Int) (b Int) (r Int) (s Int) )(let ((?x51 (* b00 r00)))
 (let ((?x47 (* a00 s00)))
 (let ((?x1132 (* (- 1) ?x47)))
 (let ((?x1926 (+ (* (- 1) (* (+ b (* (- 1) a)) r)) ?x1132 (* (+ s (* (- 1) r)) a) ?x51)))
 (let ((?x1806 (+ q (* (- 1) p))))
 (let ((?x1908 (+ s (* (- 1) r))))
 (let ((?x342 (* (- 1) a)))
 (let ((?x1934 (+ b ?x342)))
 (let ((?x1979 (+ (* ?x1908 ?x1908 ?x1908 ?x1806 a a a p) (* ?x1908 ?x1934 ?x1806 ?x1806 ?x1806 r r r p p p) (* ?x1908 ?x1908 ?x1908 ?x1934 ?x1934 r a p) (* ?x1908 ?x1806 ?x1806 r a a p))))
 (let ((?x1804 (+ (* (- 1) (* (+ r (* (- 1) s)) b)) ?x1132 (* (+ a (* (- 1) b)) s) ?x51)))
 (let ((?x1910 (+ p (* (- 1) q))))
 (let ((?x1893 (+ a (* (- 1) b))))
 (let ((?x262 (* (- 1) s)))
 (let ((?x447 (+ r ?x262)))
 (let ((?x1810 (+ (* ?x1893 ?x1893 ?x1893 ?x1910 s s s q) (* ?x447 ?x447 ?x447 ?x1910 ?x1910 ?x1910 s b q q q) (* ?x447 ?x1893 ?x1910 s s s b b) (* ?x447 ?x1893 ?x1893 ?x1910 s q q))))
 (let (($x1962 (or (not (= (* ?x1810 ?x1804) 0)) (not (= (* ?x1979 ?x1926) 0)))))
 (let ((?x73 (* b00 p00 s)))
 (let ((?x1914 (+ (* q00 r00 b) ?x73 (* (- 1) (* b00 r00 q)) (* (- 1) (* p00 s00 b)) (* a00 s00 q) (* (- 1) (* a00 q00 s)))))
 (let (($x1915 (= ?x1914 0)))
 (let ((?x1855 (* a00 s00 p)))
 (let ((?x1852 (* q00 r00 a)))
 (let ((?x65 (* b00 p00 r)))
 (let ((?x1875 (+ (* (- 1) (* b00 r00 p)) (* (- 1) (* p00 s00 a)) ?x65 ?x1852 ?x1855 (* (- 1) (* a00 q00 r)))))
 (let ((?x59 (* b p)))
 (let ((?x55 (* a00 q00)))
 (let (($x1847 (= (+ (* (- 1) (* q a)) ?x55 (* (- 1) (* b00 p00)) ?x59) 0)))
 (let ((?x41 (* q00 r00)))
 (let ((?x37 (* p00 s00)))
 (let ((?x141 (* (- 1) ?x37)))
 (let ((?x326 (* s p)))
 (let (($x1884 (and (= (+ (* (- 1) (* r q)) ?x326 ?x141 ?x41) 0) (= (+ (* (- 1) (* r b)) ?x1132 (* s a) ?x51) 0) $x1847 (= ?x1875 0) $x1915 $x1962)))
 (let ((?x102 (- s r)))
 (let ((?x99 (- b a)))
 (let ((?x105 (- q p)))
 (let ((?x110 (+ (* a a a p ?x105 ?x102 ?x102 ?x102) (* ?x99 p p p ?x105 ?x105 ?x105 r r r ?x102) (* a ?x99 ?x99 p r ?x102 ?x102 ?x102) (* a a p ?x105 ?x105 r ?x102))))
 (let (($x112 (= (* (+ (- (* (- 1) ?x99 r) ?x47) (* a ?x102) ?x51) ?x110) 0)))
 (let ((?x84 (- r s)))
 (let ((?x90 (- p q)))
 (let ((?x87 (- a b)))
 (let ((?x95 (+ (* ?x87 ?x87 ?x87 ?x90 q s s s) (* b ?x90 ?x90 ?x90 q q q ?x84 ?x84 ?x84 s) (* ?x87 b b ?x90 ?x84 s s s) (* ?x87 ?x87 ?x90 q q ?x84 s))))
 (let (($x97 (= (* (+ (- (* (- 1) b ?x84) ?x47) (* ?x87 s) ?x51) ?x95) 0)))
 (let ((?x81 (* a00 q00 s)))
 (let ((?x76 (* b p00 s00)))
 (let ((?x80 (+ (- (- (+ (* b q00 r00) ?x73) (* b00 q r00)) ?x76) (* a00 q s00))))
 (let ((?x69 (* a00 q00 r)))
 (let ((?x66 (* a q00 r00)))
 (let ((?x68 (+ (- (* (- 1) b00 p r00) (* a p00 s00)) ?x65 ?x66 (* a00 p s00))))
 (let (($x61 (= (+ (- (+ (* (- 1) a q) ?x55) (* b00 p00)) ?x59) 0)))
 (let (($x44 (= (+ (- (+ (* (- 1) q r) (* p s)) ?x37) ?x41) 0)))
 (let (($x115 (and $x44 (= (+ (- (* (- 1) b r) ?x47) (* a s) ?x51) 0) $x61 (= (- ?x68 ?x69) 0) (= (- ?x80 ?x81) 0) (or (not $x97) (not $x112)))))
 (rewrite (= $x115 $x1884)))))))))))))))))))))))))))))))))))))))))))))))))))))
 ))
 (let ((@x117 (asserted $x116)))
 (let ((@x1871 (mp (mp @x117 (quant-intro (proof-bind ?x1799) (= $x116 $x1841)) $x1841) (rewrite (= $x1841 $x1841)) $x1841)))
 (let ((@x246 (mp (mp @x1871 (quant-intro (proof-bind ?x1922) (= $x1841 $x1918)) $x1918) (quant-intro (proof-bind ?x1982) (= $x1918 $x1814)) $x1814)))
 (let ((@x474 (mp (mp~ @x246 (sk (~ $x1814 $x1336)) $x1336) (rewrite (= $x1336 $x1661)) $x1661)))
 (let ((@x1493 (and-elim @x474 $x2015)))
 (let ((@x347 (unit-resolution ((_ th-lemma arith triangle-eq) (or (not $x2015) $x1281)) @x1493 $x1281)))
 (let (($x418 (<= ?x2014 0)))
 (let ((@x1606 (unit-resolution ((_ th-lemma arith triangle-eq) (or (not $x2015) $x418)) @x1493 $x418)))
 (let (($x2012 (not (<= ?x357 0))))
 (let (($x2075 (>= ?x1489 0)))
 (let (($x1826 (<= ?x1489 0)))
 (let ((@x1977 (unit-resolution ((_ th-lemma arith triangle-eq) (or $x2061 (not $x1826) (not $x2075))) (lemma ((_ th-lemma arith farkas 1 1 1) (hypothesis (not $x1826)) @x1606 @x347 false) $x1826) (lemma ((_ th-lemma arith farkas 1 1 1) (hypothesis (not $x2075)) @x1606 @x347 false) $x2075) $x2061)))
 (let (($x818 (>= ?x357 0)))
 (let ((@x1689 (unit-resolution ((_ th-lemma arith triangle-eq) (or $x2058 $x2012 (not $x818))) (lemma ((_ th-lemma arith farkas 1 1 1) (hypothesis (not $x818)) @x1606 @x347 false) $x818) (unit-resolution (and-elim @x474 $x2067) @x1977 $x456) $x2012)))
 ((_ th-lemma arith farkas 1 1 1) @x1689 @x1606 @x347 false))))))))))))))))))))))))))))))))))))))))))))))))))))))))))))))))))))))))))))))))))))))))))))))))))))))))))))))))))))))))))))))))

(:added-eqs                 10
 :arith-assert-diseq        3
 :arith-assert-lower        19
 :arith-assert-upper        18
 :arith-conflicts           4
 :arith-eq-adapter          11
 :arith-fixed-eqs           6
 :arith-grobner             4
 :arith-max-min             976
 :arith-nonlinear-horner    30
 :arith-num-rows            8
 :arith-pivots              5
 :arith-pseudo-nonlinear    8
 :arith-row-summations      1
 :arith-tableau-max-columns 137
 :arith-tableau-max-rows    8
 :conflicts                 4
 :decisions                 7
 :del-clause                27
 :final-checks              4
 :max-memory                467.01
 :memory                    3.30
 :mk-bool-var               39
 :mk-clause                 40
 :num-allocs                27147046326870.00
 :num-checks                1
 :propagations              19
 :rlimit-count              116656059
 :time                      101.11
 :total-time                100.76)
